50 8
575 431
684 751
955 594
555 114
349 655
987 694
247 406
415 870
441 461
829 733
738 344
222 423
702 38
767 773
671 345
86 865
693 842
639 146
406 550
755 759
163 773
442 483
900 196
392 800
240 619
816 35
130 532
420 621
711 454
401 813
122 421
155 755
649 63
426 510
79 854
958 637
697 675
140 717
689 786
721 493
170 627
681 873
82 772
703 94
998 742
508 580
78 838
259 609
322 568
592 189
